NAME: rand_1/map1_480
TYPE: TSP
COMMENT: autogenerated using a wonderful map creator
DIMENSION: 600
EDGE_WEIGHT_TYPE: EUC_2D
NODE_COORD_SECTION
1 38.0 2.0
2 25.0 97.0
3 27.0 3.0
4 7.0 99.0
5 41.0 96.0
6 12.0 97.0
7 11.0 4.0
8 17.0 97.0
9 40.0 98.0
10 21.0 94.0
11 40.0 5.0
12 9.0 3.0
13 6.0 5.0
14 20.0 94.0
15 27.0 98.0
16 20.0 5.0
17 23.0 2.0
18 3.0 5.0
19 14.0 99.0
20 32.0 95.0
21 43.0 3.0
22 43.0 1.0
23 42.0 99.0
24 4.0 3.0
25 23.0 3.0
26 44.0 1.0
27 39.0 98.0
28 37.0 98.0
29 12.0 1.0
30 36.0 96.0
31 19.0 4.0
32 17.0 96.0
33 25.0 1.0
34 8.0 5.0
35 24.0 3.0
36 14.0 98.0
37 3.0 4.0
38 9.0 5.0
39 41.0 94.0
40 14.0 94.0
41 5.0 3.0
42 22.0 4.0
43 1.0 1.0
44 3.0 97.0
45 29.0 96.0
46 3.0 98.0
47 27.0 2.0
48 23.0 98.0
49 11.0 95.0
50 29.0 98.0
51 29.0 4.0
52 7.0 3.0
53 9.0 4.0
54 26.0 98.0
55 9.0 1.0
56 7.0 97.0
57 3.0 96.0
58 43.0 2.0
59 6.0 3.0
60 30.0 98.0
61 2.0 99.0
62 15.0 95.0
63 30.0 97.0
64 29.0 94.0
65 8.0 6.0
66 44.0 98.0
67 17.0 95.0
68 25.0 98.0
69 8.0 3.0
70 17.0 6.0
71 33.0 4.0
72 42.0 94.0
73 43.0 97.0
74 36.0 99.0
75 9.0 95.0
76 27.0 97.0
77 23.0 4.0
78 21.0 97.0
79 5.0 94.0
80 11.0 1.0
81 42.0 95.0
82 17.0 94.0
83 25.0 3.0
84 20.0 97.0
85 2.0 95.0
86 35.0 95.0
87 18.0 4.0
88 39.0 97.0
89 23.0 99.0
90 12.0 5.0
91 43.0 98.0
92 4.0 98.0
93 6.0 6.0
94 30.0 2.0
95 31.0 97.0
96 5.0 6.0
97 24.0 99.0
98 5.0 2.0
99 21.0 98.0
100 17.0 4.0
101 10.0 5.0
102 35.0 96.0
103 1.0 99.0
104 42.0 97.0
105 21.0 1.0
106 31.0 3.0
107 15.0 97.0
108 26.0 5.0
109 2.0 98.0
110 12.0 94.0
111 7.0 96.0
112 8.0 98.0
113 3.0 1.0
114 16.0 5.0
115 30.0 4.0
116 26.0 95.0
117 12.0 2.0
118 37.0 2.0
119 39.0 99.0
120 11.0 96.0
121 16.0 96.0
122 29.0 97.0
123 37.0 5.0
124 11.0 98.0
125 40.0 4.0
126 43.0 99.0
127 16.0 4.0
128 35.0 3.0
129 2.0 6.0
130 7.0 98.0
131 39.0 94.0
132 22.0 1.0
133 19.0 95.0
134 2.0 3.0
135 34.0 99.0
136 16.0 95.0
137 41.0 2.0
138 17.0 98.0
139 30.0 95.0
140 30.0 99.0
141 21.0 5.0
142 4.0 97.0
143 33.0 99.0
144 36.0 94.0
145 31.0 99.0
146 22.0 98.0
147 23.0 95.0
148 38.0 94.0
149 42.0 1.0
150 38.0 5.0
151 4.0 4.0
152 28.0 1.0
153 5.0 98.0
154 35.0 2.0
155 15.0 4.0
156 33.0 2.0
157 27.0 4.0
158 41.0 5.0
159 19.0 1.0
160 4.0 99.0
161 24.0 1.0
162 42.0 96.0
163 15.0 1.0
164 23.0 96.0
165 28.0 3.0
166 44.0 97.0
167 34.0 97.0
168 26.0 3.0
169 40.0 95.0
170 12.0 6.0
171 5.0 97.0
172 36.0 5.0
173 2.0 94.0
174 27.0 99.0
175 10.0 2.0
176 31.0 4.0
177 17.0 99.0
178 37.0 4.0
179 39.0 5.0
180 6.0 4.0
181 23.0 94.0
182 9.0 96.0
183 41.0 97.0
184 14.0 2.0
185 6.0 94.0
186 44.0 99.0
187 36.0 95.0
188 34.0 5.0
189 16.0 1.0
190 37.0 97.0
191 1.0 96.0
192 39.0 2.0
193 28.0 5.0
194 11.0 3.0
195 21.0 95.0
196 32.0 5.0
197 33.0 6.0
198 40.0 97.0
199 12.0 4.0
200 32.0 6.0
201 41.0 6.0
202 29.0 1.0
203 15.0 5.0
204 32.0 1.0
205 33.0 3.0
206 26.0 96.0
207 38.0 6.0
208 11.0 5.0
209 3.0 99.0
210 25.0 95.0
211 28.0 95.0
212 43.0 96.0
213 20.0 6.0
214 32.0 98.0
215 6.0 99.0
216 24.0 4.0
217 10.0 95.0
218 14.0 95.0
219 43.0 5.0
220 12.0 95.0
221 30.0 6.0
222 33.0 96.0
223 5.0 5.0
224 7.0 5.0
225 23.0 5.0
226 38.0 98.0
227 21.0 6.0
228 41.0 4.0
229 13.0 98.0
230 2.0 4.0
231 15.0 96.0
232 25.0 96.0
233 1.0 3.0
234 44.0 94.0
235 2.0 97.0
236 27.0 5.0
237 22.0 96.0
238 41.0 1.0
239 36.0 2.0
240 13.0 2.0
241 16.0 84.0
242 7.0 35.0
243 19.0 9.0
244 40.0 41.0
245 5.0 83.0
246 40.0 50.0
247 29.0 50.0
248 40.0 68.0
249 10.0 36.0
250 10.0 45.0
251 34.0 12.0
252 37.0 8.0
253 22.0 19.0
254 31.0 86.0
255 37.0 17.0
256 25.0 61.0
257 22.0 37.0
258 22.0 46.0
259 24.0 83.0
260 35.0 83.0
261 13.0 83.0
262 16.0 79.0
263 7.0 21.0
264 28.0 71.0
265 28.0 80.0
266 40.0 45.0
267 28.0 89.0
268 6.0 61.0
269 10.0 22.0
270 10.0 31.0
271 10.0 40.0
272 37.0 12.0
273 10.0 58.0
274 34.0 25.0
275 43.0 55.0
276 22.0 32.0
277 13.0 51.0
278 3.0 28.0
279 43.0 82.0
280 16.0 65.0
281 13.0 78.0
282 28.0 39.0
283 1.0 85.0
284 16.0 83.0
285 28.0 66.0
286 40.0 49.0
287 10.0 8.0
288 10.0 17.0
289 25.0 24.0
290 25.0 33.0
291 43.0 41.0
292 31.0 85.0
293 32.0 50.0
294 13.0 55.0
295 28.0 25.0
296 16.0 69.0
297 1.0 89.0
298 40.0 8.0
299 9.0 39.0
300 28.0 61.0
301 40.0 35.0
302 40.0 44.0
303 31.0 53.0
304 10.0 30.0
305 25.0 28.0
306 13.0 32.0
307 31.0 80.0
308 4.0 63.0
309 13.0 41.0
310 4.0 81.0
311 43.0 72.0
312 32.0 72.0
313 28.0 20.0
314 13.0 68.0
315 34.0 91.0
316 16.0 64.0
317 28.0 38.0
318 28.0 47.0
319 40.0 12.0
320 28.0 56.0
321 6.0 28.0
322 9.0 61.0
323 7.0 91.0
324 20.0 39.0
325 19.0 83.0
326 31.0 48.0
327 39.0 61.0
328 43.0 22.0
329 4.0 67.0
330 4.0 76.0
331 16.0 41.0
332 37.0 82.0
333 1.0 70.0
334 38.0 83.0
335 7.0 77.0
336 25.0 9.0
337 31.0 43.0
338 12.0 39.0
339 1.0 29.0
340 1.0 38.0
341 13.0 40.0
342 43.0 53.0
343 34.0 72.0
344 4.0 80.0
345 34.0 81.0
346 1.0 56.0
347 37.0 77.0
348 37.0 86.0
349 7.0 63.0
350 40.0 11.0
351 27.0 50.0
352 19.0 46.0
353 31.0 29.0
354 31.0 56.0
355 24.0 17.0
356 4.0 48.0
357 23.0 61.0
358 10.0 91.0
359 43.0 39.0
360 16.0 22.0
361 13.0 35.0
362 25.0 89.0
363 4.0 66.0
364 34.0 67.0
365 32.0 39.0
366 37.0 63.0
367 34.0 76.0
368 16.0 40.0
369 1.0 51.0
370 37.0 72.0
371 22.0 83.0
372 28.0 14.0
373 22.0 92.0
374 9.0 28.0
375 19.0 32.0
376 7.0 76.0
377 39.0 28.0
378 31.0 24.0
379 40.0 91.0
380 4.0 25.0
381 41.0 83.0
382 13.0 12.0
383 1.0 10.0
384 1.0 19.0
385 25.0 75.0
386 43.0 34.0
387 13.0 21.0
388 34.0 53.0
389 13.0 30.0
390 22.0 60.0
391 37.0 58.0
392 22.0 87.0
393 3.0 83.0
394 37.0 85.0
395 14.0 83.0
396 7.0 44.0
397 19.0 27.0
398 19.0 36.0
399 7.0 80.0
400 31.0 10.0
401 19.0 54.0
402 11.0 50.0
403 19.0 63.0
404 31.0 37.0
405 4.0 20.0
406 43.0 20.0
407 10.0 72.0
408 16.0 12.0
409 10.0 90.0
410 22.0 73.0
411 34.0 75.0
412 22.0 82.0
413 7.0 39.0
414 15.0 61.0
415 7.0 57.0
416 7.0 66.0
417 19.0 31.0
418 7.0 75.0
419 40.0 72.0
420 29.0 72.0
421 10.0 67.0
422 34.0 34.0
423 22.0 41.0
424 1.0 18.0
425 34.0 61.0
426 37.0 57.0
427 34.0 70.0
428 7.0 43.0
429 19.0 17.0
430 18.0 61.0
431 42.0 28.0
432 27.0 39.0
433 19.0 35.0
434 31.0 18.0
435 21.0 72.0
436 34.0 20.0
437 4.0 28.0
438 34.0 29.0
439 25.0 60.0
440 22.0 36.0
441 34.0 47.0
442 25.0 78.0
443 22.0 54.0
444 25.0 87.0
445 43.0 86.0
446 13.0 91.0
447 7.0 20.0
448 7.0 29.0
449 28.0 70.0
450 36.0 83.0
451 7.0 47.0
452 28.0 79.0
453 19.0 21.0
454 31.0 13.0
455 40.0 80.0
456 25.0 37.0
457 34.0 15.0
458 22.0 22.0
459 22.0 31.0
460 34.0 33.0
461 25.0 64.0
462 10.0 75.0
463 13.0 77.0
464 7.0 24.0
465 16.0 91.0
466 7.0 33.0
467 5.0 72.0
468 19.0 16.0
469 17.0 83.0
470 28.0 92.0
471 10.0 34.0
472 10.0 43.0
473 34.0 10.0
474 25.0 41.0
475 2.0 39.0
476 34.0 19.0
477 37.0 15.0
478 34.0 28.0
479 22.0 26.0
480 22.0 44.0
481 43.0 76.0
482 37.0 42.0
483 13.0 72.0
484 35.0 72.0
485 43.0 85.0
486 1.0 88.0
487 28.0 51.0
488 7.0 28.0
489 18.0 28.0
490 28.0 69.0
491 19.0 11.0
492 28.0 78.0
493 6.0 50.0
494 40.0 61.0
495 10.0 20.0
496 10.0 29.0
497 10.0 38.0
498 25.0 36.0
499 25.0 45.0
500 10.0 56.0
501 34.0 23.0
502 31.0 88.0
503 22.0 30.0
504 2.0 61.0
505 37.0 28.0
506 13.0 67.0
507 43.0 80.0
508 1.0 74.0
509 13.0 76.0
510 43.0 89.0
511 16.0 72.0
512 16.0 90.0
513 28.0 55.0
514 40.0 20.0
515 40.0 29.0
516 40.0 38.0
517 40.0 56.0
518 21.0 61.0
519 19.0 91.0
520 25.0 22.0
521 25.0 40.0
522 31.0 74.0
523 22.0 16.0
524 20.0 83.0
525 31.0 83.0
526 43.0 48.0
527 43.0 66.0
528 13.0 80.0
529 40.0 15.0
530 28.0 59.0
531 40.0 33.0
532 19.0 77.0
533 25.0 26.0
534 31.0 60.0
535 22.0 11.0
536 31.0 78.0
537 37.0 9.0
538 22.0 20.0
539 43.0 52.0
540 12.0 83.0
541 32.0 61.0
542 4.0 79.0
543 43.0 70.0
544 16.0 53.0
545 13.0 66.0
546 1.0 64.0
547 28.0 27.0
548 16.0 80.0
549 28.0 45.0
550 1.0 91.0
551 28.0 54.0
552 28.0 63.0
553 29.0 28.0
554 40.0 28.0
555 40.0 37.0
556 7.0 89.0
557 39.0 50.0
558 19.0 81.0
559 2.0 28.0
560 4.0 56.0
561 4.0 65.0
562 4.0 74.0
563 1.0 50.0
564 4.0 83.0
565 34.0 84.0
566 16.0 48.0
567 16.0 57.0
568 28.0 22.0
569 38.0 72.0
570 28.0 49.0
571 40.0 14.0
572 7.0 84.0
573 25.0 16.0
574 4.0 42.0
575 39.0 72.0
576 13.0 20.0
577 16.0 25.0
578 16.0 34.0
579 28.0 8.0
580 1.0 54.0
581 22.0 86.0
582 28.0 17.0
583 17.0 17.0
584 16.0 61.0
585 28.0 26.0
586 36.0 39.0
587 28.0 35.0
588 26.0 83.0
589 7.0 79.0
590 7.0 88.0
591 19.0 53.0
592 10.0 13.0
593 31.0 54.0
594 43.0 19.0
595 4.0 55.0
596 43.0 46.0
597 16.0 29.0
598 4.0 73.0
599 34.0 74.0
600 1.0 49.0
601 28.0 12.0
602 34.0 92.0
603 22.0 90.0
604 28.0 21.0
605 9.0 17.0
606 7.0 74.0
607 39.0 17.0
608 7.0 92.0
609 31.0 22.0
610 31.0 31.0
611 19.0 75.0
612 41.0 72.0
613 43.0 14.0
614 4.0 32.0
615 31.0 58.0
616 4.0 50.0
617 25.0 82.0
618 24.0 28.0
619 4.0 59.0
620 25.0 91.0
621 13.0 37.0
622 16.0 42.0
623 22.0 76.0
624 14.0 72.0
625 37.0 92.0
626 19.0 34.0
627 19.0 43.0
628 31.0 8.0
629 7.0 87.0
630 31.0 17.0
631 31.0 26.0
632 4.0 27.0
633 33.0 72.0
634 25.0 68.0
635 43.0 27.0
636 16.0 10.0
637 13.0 23.0
638 1.0 21.0
639 4.0 54.0
640 34.0 55.0
641 1.0 30.0
642 22.0 62.0
643 34.0 82.0
644 22.0 80.0
645 22.0 89.0
646 37.0 87.0
647 26.0 50.0
648 15.0 50.0
649 38.0 61.0
650 19.0 29.0
651 7.0 82.0
652 19.0 47.0
653 31.0 12.0
654 19.0 56.0
655 12.0 17.0
656 43.0 13.0
657 25.0 63.0
658 4.0 40.0
659 34.0 41.0
660 10.0 74.0
661 13.0 18.0
662 34.0 50.0
663 22.0 48.0
664 1.0 25.0
665 25.0 81.0
666 22.0 57.0
667 16.0 23.0
668 37.0 64.0
669 7.0 50.0
670 19.0 15.0
671 27.0 28.0
672 28.0 91.0
673 6.0 72.0
674 19.0 51.0
675 40.0 83.0
676 4.0 17.0
677 25.0 49.0
678 10.0 60.0
679 22.0 34.0
680 1.0 11.0
681 10.0 78.0
682 34.0 45.0
683 16.0 9.0
684 14.0 39.0
685 10.0 87.0
686 3.0 39.0
687 22.0 70.0
688 7.0 18.0
689 37.0 68.0
690 36.0 72.0
691 7.0 45.0
692 7.0 54.0
693 19.0 28.0
694 19.0 37.0
695 40.0 78.0
696 31.0 20.0
697 4.0 12.0
698 34.0 22.0
699 25.0 53.0
700 22.0 29.0
701 37.0 27.0
702 22.0 38.0
703 22.0 47.0
704 25.0 80.0
705 37.0 45.0
706 22.0 56.0
707 22.0 65.0
708 14.0 61.0
709 7.0 49.0
710 28.0 81.0
711 40.0 73.0
712 25.0 30.0
713 10.0 41.0
714 25.0 39.0
715 25.0 48.0
716 33.0 61.0
717 34.0 26.0
718 10.0 68.0
719 22.0 33.0
720 32.0 83.0
START_DEPOT_SECTION
1
2
3
4
5
6
7
8
9
10
11
12
13
14
15
16
17
18
19
20
21
22
23
24
25
26
27
28
29
30
31
32
33
34
35
36
37
38
39
40
41
42
43
44
45
46
47
48
49
50
51
52
53
54
55
56
57
58
59
60
61
62
63
64
65
66
67
68
69
70
71
72
73
74
75
76
77
78
79
80
81
82
83
84
85
86
87
88
89
90
91
92
93
94
95
96
97
98
99
100
101
102
103
104
105
106
107
108
109
110
111
112
113
114
115
116
117
118
119
120
-1
END_DEPOT_SECTION
121
122
123
124
125
126
127
128
129
130
131
132
133
134
135
136
137
138
139
140
141
142
143
144
145
146
147
148
149
150
151
152
153
154
155
156
157
158
159
160
161
162
163
164
165
166
167
168
169
170
171
172
173
174
175
176
177
178
179
180
181
182
183
184
185
186
187
188
189
190
191
192
193
194
195
196
197
198
199
200
201
202
203
204
205
206
207
208
209
210
211
212
213
214
215
216
217
218
219
220
221
222
223
224
225
226
227
228
229
230
231
232
233
234
235
236
237
238
239
240
-1
EOF
